100
116
163
162
293
183
177
155
269
139
262
234
247
164
106
279
104
171
64
41
22
158
15
28
85
154
249
16
288
238
12
264
98
41
173
126
155
292
114
195
29
288
85
144
98
69
63
158
177
255
88
64
257
269
273
293
98
29
225
195
154
69
255
189
141
114
56
198
21
292
93
180
7
277
262
174
174
177
7
194
255
129
257
65
44
42
85
92
162
122
90
51
119
288
119
10
88
106
90
40
244
END